Test: battleship-08-15-sat.cnf
Options: -no-inverting-opt -activity-look-freq=1
WARNING: for repeatability, setting FPU to use double precision
============================[ Problem Statistics ]=============================
|                                                                             |
|  Number of symmetries:           14                                         |
|  Number of invertingSyms:         0                                         |
|  Number of variables:           120                                         |
|  Number of clauses:             484                                         |
|  Parse time:                   0.00 s                                       |
|                                                                             |
============================[ Search Statistics ]==============================
| Conflicts |          ORIGINAL         |          LEARNT          | Progress |
|           |    Vars  Clauses Literals |    Limit  Clauses Lit/Cl |          |
===============================================================================
|       100 |     120      484     1800 |      177      103     43 |  0.007 % |
===============================================================================
restarts              : 2
conflicts             : 121            (inf /sec)
symconflicts          : 3              (inf /sec)
decisions             : 281            (0.00 % random) (inf /sec)
propagations          : 6085           (inf /sec)
sympropagations       : 6              (inf /sec)
conflict literals     : 5008           (0.40 % deleted)
literals     : 5008           (0.40 % deleted)

HEURISTIC USAGES
random                : 0           
activity w/ lookahead : 280         
activity no lookahead : 0           
original sp           : 0           
sym count             : 0           

Memory used           : 5.00 MB
CPU time              : 0 s

SATISFIABLE
